NAME : tsp_175_sol.txt
COMMENT : OR-Tools Guided Local Search
TYPE : TOUR
DIMENSION : 129
COST : 8859
STATUS : ROUTING_SUCCESS
GAP : 0.00% (Reference Solution)
TOUR_SECTION
1
86
108
15
112
83
63
31
21
47
54
78
22
117
124
105
103
100
65
37
96
64
3
129
104
12
95
20
23
8
119
55
58
16
99
123
7
66
56
87
32
85
115
10
53
81
43
61
90
13
72
4
26
116
73
97
88
111
48
69
51
128
101
50
77
120
94
60
92
121
49
89
80
113
41
62
27
84
30
24
52
68
71
36
110
42
126
18
102
98
33
118
109
6
45
70
25
44
93
67
19
5
17
106
35
76
11
122
39
38
40
82
59
127
57
79
91
114
125
107
14
28
29
2
74
9
46
75
34
-1
